p tw 79 949
0 1
0 2
0 3
0 4
0 5
0 6
0 7
0 15
0 16
0 18
0 21
0 46
0 47
0 48
0 9
0 10
0 26
0 45
0 52
0 68
0 69
0 41
0 66
0 73
0 74
0 11
0 22
0 40
0 42
0 54
0 61
0 64
1 2
1 3
1 4
1 5
1 6
1 7
1 9
1 12
1 25
1 26
1 27
1 28
1 29
1 17
1 19
1 22
1 36
1 47
1 50
1 56
1 71
1 32
1 48
1 68
1 72
1 15
1 21
1 23
1 31
1 38
1 40
1 64
1 78
1 45
1 67
1 76
2 3
2 4
2 5
2 6
2 7
2 16
2 23
2 25
2 33
2 62
2 63
2 64
2 65
2 9
2 15
2 34
2 41
2 55
2 60
2 32
2 42
2 53
2 54
2 69
2 29
2 30
2 50
2 61
2 78
2 17
2 51
2 74
3 4
3 5
3 6
3 7
3 15
3 33
3 35
3 43
3 57
3 60
3 61
3 68
4 5
4 6
4 7
4 20
4 46
4 52
4 53
4 54
4 55
4 56
4 15
4 29
4 30
4 50
4 61
4 78
4 10
4 23
4 27
4 32
4 38
4 48
5 6
5 7
6 7
6 16
6 17
6 28
6 29
6 38
6 49
6 50
6 51
6 21
6 27
6 55
6 58
6 60
6 64
6 70
7 8
7 9
7 10
7 11
7 12
7 13
7 14
7 15
7 21
7 28
7 37
7 38
7 39
7 40
7 41
7 25
7 50
7 74
7 17
7 30
7 51
7 64
7 78
8 9
8 10
8 11
8 12
8 13
8 14
8 15
8 25
8 27
8 40
8 42
8 43
8 44
8 45
9 10
9 11
9 12
9 13
9 14
9 15
9 25
9 26
9 27
9 28
9 29
9 21
9 37
9 38
9 39
9 40
9 41
9 45
9 48
9 52
9 68
9 69
9 46
9 56
9 70
9 33
9 34
9 55
9 60
9 65
10 11
10 12
10 13
10 14
10 15
10 26
10 45
10 48
10 52
10 68
10 69
10 25
10 37
10 50
10 74
10 23
10 27
10 32
10 38
10 53
10 78
11 12
11 13
11 14
11 15
11 21
11 22
11 40
11 42
11 54
11 61
11 64
12 13
12 14
12 15
12 25
12 26
12 27
12 28
12 29
12 40
12 42
12 43
12 44
12 45
12 47
12 58
12 65
12 67
12 46
12 56
12 70
12 17
12 19
12 48
12 76
13 14
13 15
13 27
13 47
13 58
13 65
13 67
13 29
13 46
13 56
13 70
13 16
13 49
13 50
13 59
13 63
13 64
13 71
13 25
13 37
13 74
14 15
14 27
14 29
14 46
14 56
14 70
14 25
14 37
14 50
14 74
15 16
15 18
15 21
15 46
15 47
15 48
15 33
15 35
15 43
15 57
15 60
15 61
15 68
15 41
15 45
15 66
15 73
15 74
15 27
15 34
15 50
15 63
15 64
15 70
15 75
15 55
15 65
15 25
15 37
15 23
15 31
15 38
15 40
15 78
15 29
15 30
15 54
16 17
16 18
16 19
16 20
16 21
16 22
16 23
16 24
16 46
16 47
16 48
16 28
16 29
16 38
16 49
16 50
16 51
16 25
16 33
16 62
16 63
16 64
16 65
16 27
16 55
16 58
16 60
16 70
16 59
16 71
17 18
17 19
17 20
17 21
17 22
17 23
17 24
17 28
17 29
17 38
17 49
17 50
17 51
17 43
17 46
17 57
17 58
17 59
17 60
17 61
17 36
17 47
17 56
17 71
17 45
17 48
17 67
17 76
17 30
17 64
17 74
17 78
18 19
18 20
18 21
18 22
18 23
18 24
18 46
18 47
18 48
18 41
18 45
18 66
18 73
18 74
19 20
19 21
19 22
19 23
19 24
19 27
19 30
19 31
19 32
19 33
19 34
19 35
19 36
19 47
19 50
19 56
19 71
19 45
19 48
19 67
19 76
20 21
20 22
20 23
20 24
20 46
20 52
20 53
20 54
20 55
20 56
20 31
20 35
20 39
20 51
20 67
20 71
20 77
21 22
21 23
21 24
21 28
21 37
21 38
21 39
21 40
21 41
21 46
21 47
21 48
21 27
21 55
21 58
21 60
21 64
21 70
21 31
21 78
21 42
21 54
21 61
22 23
22 24
22 36
22 47
22 50
22 56
22 71
22 40
22 42
22 54
22 61
22 64
23 24
23 25
23 33
23 62
23 63
23 64
23 65
23 31
23 38
23 40
23 78
23 27
23 32
23 48
23 53
24 39
24 44
24 46
24 47
24 50
24 57
24 63
24 66
25 26
25 27
25 28
25 29
25 40
25 42
25 43
25 44
25 45
25 33
25 62
25 63
25 64
25 65
25 32
25 48
25 50
25 68
25 71
25 72
25 37
25 74
26 27
26 28
26 29
26 45
26 48
26 52
26 68
26 69
27 28
27 29
27 30
27 31
27 32
27 33
27 34
27 35
27 36
27 40
27 42
27 43
27 44
27 45
27 47
27 58
27 65
27 67
27 46
27 56
27 70
27 50
27 63
27 64
27 75
27 55
27 60
27 38
27 48
27 53
27 78
28 29
28 37
28 38
28 39
28 40
28 41
28 49
28 50
28 51
29 38
29 49
29 50
29 51
29 43
29 46
29 57
29 58
29 59
29 60
29 61
29 56
29 70
29 30
29 54
29 78
30 31
30 32
30 33
30 34
30 35
30 36
30 50
30 54
30 61
30 78
30 51
30 64
30 74
31 32
31 33
31 34
31 35
31 36
31 39
31 51
31 55
31 67
31 71
31 77
31 38
31 40
31 64
31 78
32 33
32 34
32 35
32 36
32 48
32 50
32 68
32 71
32 72
32 42
32 53
32 54
32 62
32 69
32 38
32 78
33 34
33 35
33 36
33 62
33 63
33 64
33 65
33 43
33 57
33 60
33 61
33 68
33 41
33 55
34 35
34 36
34 45
34 50
34 63
34 64
34 70
34 75
34 41
34 55
34 60
34 65
34 42
34 53
34 54
34 62
34 69
35 36
35 43
35 57
35 60
35 61
35 68
35 39
35 51
35 55
35 67
35 71
35 77
36 47
36 50
36 56
36 71
37 38
37 39
37 40
37 41
37 50
37 74
38 39
38 40
38 41
38 49
38 50
38 51
38 48
38 55
38 68
38 71
38 75
38 76
38 77
38 64
38 78
38 53
39 40
39 41
39 44
39 46
39 47
39 50
39 57
39 63
39 66
39 51
39 55
39 67
39 71
39 77
40 41
40 42
40 43
40 44
40 45
40 64
40 78
40 54
40 61
41 45
41 66
41 73
41 74
41 55
41 60
41 65
42 43
42 44
42 45
42 53
42 54
42 62
42 69
42 61
42 64
43 44
43 45
43 46
43 57
43 58
43 59
43 60
43 61
43 68
44 45
44 46
44 47
44 50
44 57
44 63
44 66
45 48
45 52
45 68
45 69
45 66
45 73
45 74
45 50
45 63
45 64
45 70
45 75
45 67
45 76
46 47
46 48
46 52
46 53
46 54
46 55
46 56
46 57
46 58
46 59
46 60
46 61
46 50
46 63
46 66
46 70
47 48
47 50
47 57
47 63
47 66
47 58
47 65
47 67
47 56
47 71
48 52
48 68
48 69
48 50
48 71
48 72
48 55
48 75
48 76
48 77
48 67
48 53
48 78
49 50
49 51
49 59
49 63
49 64
49 71
50 51
50 57
50 63
50 66
50 56
50 71
50 68
50 72
50 64
50 70
50 75
50 59
50 74
50 54
50 61
50 78
51 55
51 67
51 71
51 77
51 64
51 74
51 78
52 53
52 54
52 55
52 56
52 68
52 69
53 54
53 55
53 56
53 62
53 69
53 78
54 55
54 56
54 62
54 69
54 61
54 78
54 64
55 56
55 68
55 71
55 75
55 76
55 77
55 67
55 60
55 65
55 58
55 64
55 70
56 70
56 71
57 58
57 59
57 60
57 61
57 63
57 66
57 68
58 59
58 60
58 61
58 65
58 67
58 64
58 70
59 60
59 61
59 63
59 64
59 71
60 61
60 68
60 65
60 64
60 70
61 68
61 78
61 64
62 63
62 64
62 65
62 69
63 64
63 65
63 66
63 70
63 75
63 71
64 65
64 70
64 75
64 71
64 78
64 74
65 67
66 73
66 74
67 71
67 77
67 76
68 69
68 71
68 72
68 75
68 76
68 77
70 75
71 72
71 75
71 76
71 77
73 74
74 78
75 76
75 77
76 77
